(declare-fun var0 () String)
(assert (str.in.re var0 (re.++ (re.+ (re.union (str.to.re "ii") (str.to.re "j"))) (re.++ (re.union (re.union (str.to.re "e") (str.to.re "f")) (re.union (str.to.re "g") (str.to.re "hh"))) (re.++ (re.* (re.union (str.to.re "ccc") (str.to.re "dd"))) (re.++ (re.* (re.union (str.to.re "aaa") (str.to.re "bb"))) (re.++ (re.union (re.+ (str.to.re "88")) (re.+ (str.to.re "999"))) (re.++ (re.union (re.+ (str.to.re "666")) (re.+ (str.to.re "7"))) (re.++ (re.* (re.+ (str.to.re "55"))) (re.++ (re.* (re.union (str.to.re "3") (str.to.re "444"))) (re.++ (re.* (re.* (str.to.re "222"))) (re.union (re.* (str.to.re "0")) (re.+ (str.to.re "111"))))))))))))))
(assert (<= 101 (str.len var0)))
(check-sat)